experiments/mac_chuffed/detailed-output/inst-10-942080517.dzn

A = 4;
T = 94;
X = 5;
Y = 5;
Z = 3;
building = array2d(0..4, 0..4, [0, 0, 0, 0, 0, 0, 1, 0, 1, 0, 0, 2, 1, 2, 0, 0, 1, 1, 1, 0, 0, 0, 0, 0, 0]);
